0	59	131	22	168	104	81	32	26	122	98	
186	0	137	196	186	34	41	173	145	24	97	
173	49	0	147	35	37	144	84	158	182	157	
32	185	91	0	151	49	178	146	91	190	174	
119	74	44	138	0	28	123	156	160	124	78	
50	95	116	49	91	0	43	53	198	176	108	
111	109	67	182	128	199	0	55	167	189	157	
200	180	93	57	31	93	188	0	199	170	50	
57	30	137	67	176	195	109	128	0	78	45	
159	23	97	158	44	135	169	178	146	0	129	
40	157	144	198	131	59	34	106	167	87	0	
